157 153 156 159 155 154 160 161 162 168 163 167 166 164 165 203 204 202 201 200 199 198 208 207 206 205 197 196 195 194 209 210 211 212 213 214 215 216 217 223 224 222 221 220 218 219 193 192 191 190 226 225 189 227 228 229 230 231 533 532 531 530 233 232 234 235 236 529 528 527 526 523 522 521 520 518 519 517 516 515 514 513 512 511 510 509 237 240 239 238 246 247 245 244 243 242 241 248 249 250 251 252 254 253 255 256 257 300 258 259 260 261 262 263 264 266 265 299 298 297 296 295 294 291 292 293 270 269 268 267 271 272 273 274 275 276 277 278 279 282 281 280 287 286 285 284 283 288 289 290 334 335 336 337 338 339 341 340 333 332 331 330 342 343 344 345 346 364 363 362 361 359 358 348 347 349 350 351 415 416 414 413 352 353 354 355 357 356 412 411 410 418 417 419 420 421 422 423 424 425 426 427 428 429 430 432 437 438 436 435 434 433 431 382 386 387 407 406 405 408 385 383 384 409 404 403 402 360 401 400 399 397 398 370 369 368 365 367 366 329 328 327 326 325 324 323 322 373 372 371 396 395 394 393 392 391 388 389 390 381 380 379 378 377 376 375 374 315 314 316 321 320 319 318 317 313 312 451 311 310 309 308 307 305 306 304 303 301 302 508 507 506 505 504 503 502 498 501 500 499 452 453 440 441 450 449 448 447 446 442 445 444 443 439 454 455 456 457 458 459 460 461 462 463 466 465 464 496 497 495 494 524 525 493 492 491 490 489 488 534 535 487 486 485 484 536 483 481 482 475 476 480 479 477 478 544 543 541 542 107 109 108 173 174 175 176 540 539 537 538 187 188 186 182 183 185 184 181 179 178 177 180 169 171 170 172 110 111 112 113 114 115 116 117 118 106 105 104 103 547 546 545 548 549 560 561 562 563 564 565 566 567 474 473 472 471 470 469 468 467 571 573 0 1 2 3 4 5 6 572 570 569 568 20 19 18 17 8 7 9 10 11 16 15 14 13 12 23 21 24 25 26 27 28 29 22 31 30 32 33 34 35 36 37 38 40 41 39 42 43 44 45 46 555 556 557 558 559 550 551 101 100 552 553 554 99 102 98 96 95 97 94 93 92 91 47 48 49 50 51 52 54 53 55 56 83 82 57 58 59 60 61 63 64 62 79 80 81 84 85 86 87 90 89 88 78 77 76 75 74 73 119 120 121 122 123 71 72 65 66 67 68 70 69 124 125 126 127 128 129 130 131 132 133 134 135 136 137 138 139 140 141 144 143 142 151 150 149 152 148 147 146 145 158